SumColouring/JavaBacktracker/RandomInstances/32_0.40_1.col
c File: instances/32_0.40_1.col
c
c Description: Random graph of size 32 vertices and P(0.39999999999999997) of edges between any two vertices.
p col 32 496
e 1 2
e 1 4
e 1 6
e 1 7
e 1 10
e 1 12
e 1 15
e 1 16
e 1 17
e 1 19
e 1 20
e 1 21
e 1 22
e 1 25
e 1 29
e 2 5
e 2 8
e 2 13
e 2 15
e 2 16
e 2 18
e 2 19
e 2 21
e 2 23
e 2 26
e 2 27
e 2 29
e 2 32
e 3 4
e 3 5
e 3 6
e 3 7
e 3 10
e 3 12
e 3 13
e 3 14
e 3 15
e 3 17
e 3 22
e 3 23
e 3 27
e 3 29
e 3 31
e 4 5
e 4 7
e 4 8
e 4 17
e 4 21
e 4 24
e 4 26
e 4 28
e 4 31
e 4 32
e 5 7
e 5 8
e 5 10
e 5 11
e 5 12
e 5 15
e 5 16
e 5 20
e 5 21
e 5 22
e 5 23
e 5 26
e 5 27
e 5 29
e 5 30
e 5 31
e 5 32
e 6 8
e 6 13
e 6 18
e 6 21
e 6 27
e 6 31
e 6 32
e 7 10
e 7 11
e 7 14
e 7 15
e 7 20
e 7 23
e 7 24
e 7 26
e 7 29
e 7 30
e 8 11
e 8 12
e 8 13
e 8 19
e 8 21
e 8 25
e 8 28
e 8 30
e 8 32
e 9 16
e 9 18
e 9 20
e 9 21
e 9 24
e 9 25
e 9 29
e 9 32
e 10 12
e 10 20
e 10 23
e 10 24
e 10 25
e 10 31
e 11 12
e 11 14
e 11 16
e 11 19
e 11 20
e 11 22
e 11 23
e 11 25
e 11 26
e 11 29
e 11 30
e 11 31
e 12 17
e 12 20
e 12 21
e 12 25
e 12 26
e 12 28
e 12 30
e 12 31
e 13 14
e 13 17
e 13 19
e 13 21
e 13 25
e 13 27
e 13 30
e 14 15
e 14 20
e 14 21
e 14 25
e 14 26
e 14 30
e 14 32
e 15 17
e 15 18
e 15 23
e 15 24
e 15 29
e 15 32
e 16 18
e 16 21
e 16 23
e 16 24
e 16 28
e 16 31
e 17 18
e 17 20
e 17 22
e 17 23
e 17 24
e 17 26
e 17 32
e 18 19
e 18 20
e 18 21
e 18 29
e 18 31
e 19 20
e 19 24
e 19 25
e 19 29
e 19 30
e 19 31
e 20 23
e 20 28
e 20 30
e 20 31
e 21 22
e 21 23
e 21 24
e 21 27
e 22 23
e 22 24
e 22 31
e 23 25
e 23 26
e 23 27
e 23 32
e 24 26
e 24 31
e 25 27
e 25 29
e 26 28
e 26 30
e 26 32
e 28 29
e 28 30
e 28 31
e 29 31
e 31 32